% seed = 0

mint = 78;
% maxt = 189;

nActs = 51;
dur = [0,5,5,1,2,3,2,5,3,3,1,9,6,2,5,4,2,6,6,8,2,5,5,1,2,3,2,5,3,3,1,9,6,2,5,4,2,6,6,8,2,5,5,1,2,3,2,5,3,3,0];

nSkills = 3;
sreq = [| 0,0,0,
	| 2,1,1,
	| 1,2,0,
	| 2,0,1,
	| 1,0,0,
	| 2,0,2,
	| 0,2,2,
	| 2,0,2,
	| 0,2,1,
	| 1,0,0,
	| 1,0,2,
	| 0,2,2,
	| 1,1,1,
	| 2,0,2,
	| 0,2,0,
	| 0,1,1,
	| 1,0,0,
	| 2,0,2,
	| 0,1,1,
	| 0,3,1,
	| 1,0,0,
	| 2,0,1,
	| 1,2,1,
	| 0,2,1,
	| 1,2,2,
	| 2,0,2,
	| 2,2,0,
	| 2,0,2,
	| 1,2,0,
	| 0,1,1,
	| 1,0,2,
	| 0,2,2,
	| 1,1,0,
	| 2,2,2,
	| 0,2,2,
	| 1,1,0,
	| 1,1,1,
	| 2,2,0,
	| 0,1,1,
	| 0,3,0,
	| 0,0,3,
	| 0,1,1,
	| 1,0,0,
	| 0,2,0,
	| 1,2,0,
	| 2,0,0,
	| 2,0,2,
	| 2,0,0,
	| 1,2,0,
	| 1,0,1,
	| 0,0,0, |];

% SumOfsreq = 146;

nResources = 10;
mastery = [| true,false,true,
	| true,false,true,
	| false,true,false,
	| false,true,true,
	| false,true,false,
	| false,false,true,
	| true,true,true,
	| false,false,true,
	| true,false,false,
	| false,true,false, |];

nPrecs = 81;
pred = [1,1,1,2,2,3,3,4,4,5,5,6,6,7,7,8,8,9,9,10,11,11,12,13,14,15,15,16,16,17,18,19,20,21,21,21,22,22,23,23,24,24,25,25,26,26,27,27,28,28,29,29,30,31,31,32,33,34,35,35,36,36,37,38,39,40,41,41,41,42,42,43,43,44,44,45,46,47,48,49,50];
succ = [2,3,4,9,5,6,7,5,7,13,8,10,13,10,11,12,14,11,13,12,12,15,16,17,16,18,19,20,21,19,21,21,22,22,23,24,25,29,26,27,25,27,33,28,33,30,30,31,34,32,33,31,32,35,32,36,37,36,38,39,41,40,39,41,41,42,42,43,44,49,45,46,47,45,47,48,50,50,51,51,51];

nUnrels = 189;
unpred = [2,2,2,2,2,3,3,3,3,3,4,4,5,5,5,5,5,5,5,6,6,6,6,6,6,6,7,7,7,7,7,8,8,8,8,8,8,8,8,9,9,10,10,10,10,10,10,10,11,11,11,12,12,12,12,12,12,13,13,13,13,13,14,14,14,14,15,15,15,16,16,16,17,17,18,18,19,20,20,20,20,20,20,22,22,22,22,22,23,23,23,23,23,24,24,25,25,25,25,25,25,25,26,26,26,26,26,26,26,27,27,27,27,27,28,28,28,28,28,28,28,28,29,29,30,30,30,30,30,30,30,31,31,31,32,32,32,32,32,32,33,33,33,33,33,34,34,34,34,35,35,35,36,36,36,37,37,38,38,39,40,40,40,40,40,40,42,42,42,42,42,43,43,43,43,44,44,45,45,45,45,46,46,46,47,47,48,48,49];
unsucc = [3,4,6,7,10,4,5,8,9,14,6,9,6,7,9,10,11,15,18,7,8,9,11,14,15,18,8,9,13,14,17,9,10,11,13,15,17,18,19,10,14,11,13,14,15,17,18,19,13,14,17,13,14,15,17,18,19,14,15,16,18,20,15,17,18,19,16,17,20,17,18,19,18,20,19,20,20,21,23,24,26,27,30,23,24,26,27,30,24,25,28,29,34,26,29,26,27,29,30,31,35,38,27,28,29,31,34,35,38,28,29,33,34,37,29,30,31,33,35,37,38,39,30,34,31,33,34,35,37,38,39,33,34,37,33,34,35,37,38,39,34,35,36,38,40,35,37,38,39,36,37,40,37,38,39,38,40,39,40,40,41,43,44,46,47,50,43,44,46,47,50,44,45,48,49,46,49,46,47,49,50,47,48,49,48,49,49,50,50];

USEFUL_RES = [{},
	{1,2,3,4,5,6,7,8,9,10},
	{1,2,3,4,5,7,9,10},
	{1,2,4,6,7,8,9},
	{1,2,7,9},
	{1,2,4,6,7,8,9},
	{1,2,3,4,5,6,7,8,10},
	{1,2,4,6,7,8,9},
	{1,2,3,4,5,6,7,8,10},
	{1,2,7,9},
	{1,2,4,6,7,8,9},
	{1,2,3,4,5,6,7,8,10},
	{1,2,3,4,5,6,7,8,9,10},
	{1,2,4,6,7,8,9},
	{3,4,5,7,10},
	{1,2,3,4,5,6,7,8,10},
	{1,2,7,9},
	{1,2,4,6,7,8,9},
	{1,2,3,4,5,6,7,8,10},
	{1,2,3,4,5,6,7,8,10},
	{1,2,7,9},
	{1,2,4,6,7,8,9},
	{1,2,3,4,5,6,7,8,9,10},
	{1,2,3,4,5,6,7,8,10},
	{1,2,3,4,5,6,7,8,9,10},
	{1,2,4,6,7,8,9},
	{1,2,3,4,5,7,9,10},
	{1,2,4,6,7,8,9},
	{1,2,3,4,5,7,9,10},
	{1,2,3,4,5,6,7,8,10},
	{1,2,4,6,7,8,9},
	{1,2,3,4,5,6,7,8,10},
	{1,2,3,4,5,7,9,10},
	{1,2,3,4,5,6,7,8,9,10},
	{1,2,3,4,5,6,7,8,10},
	{1,2,3,4,5,7,9,10},
	{1,2,3,4,5,6,7,8,9,10},
	{1,2,3,4,5,7,9,10},
	{1,2,3,4,5,6,7,8,10},
	{3,4,5,7,10},
	{1,2,4,6,7,8},
	{1,2,3,4,5,6,7,8,10},
	{1,2,7,9},
	{3,4,5,7,10},
	{1,2,3,4,5,7,9,10},
	{1,2,7,9},
	{1,2,4,6,7,8,9},
	{1,2,7,9},
	{1,2,3,4,5,7,9,10},
	{1,2,4,6,7,8,9},
	{}];

POTENTIAL_ACT = [{2,3,4,5,6,7,8,9,10,11,12,13,14,16,17,18,19,20,21,22,23,24,25,26,27,28,29,30,31,32,33,34,35,36,37,38,39,41,42,43,45,46,47,48,49,50},
	{2,3,4,5,6,7,8,9,10,11,12,13,14,16,17,18,19,20,21,22,23,24,25,26,27,28,29,30,31,32,33,34,35,36,37,38,39,41,42,43,45,46,47,48,49,50},
	{2,3,7,9,12,13,15,16,19,20,23,24,25,27,29,30,32,33,34,35,36,37,38,39,40,42,44,45,49},
	{2,3,4,6,7,8,9,11,12,13,14,15,16,18,19,20,22,23,24,25,26,27,28,29,30,31,32,33,34,35,36,37,38,39,40,41,42,44,45,47,49,50},
	{2,3,7,9,12,13,15,16,19,20,23,24,25,27,29,30,32,33,34,35,36,37,38,39,40,42,44,45,49},
	{2,4,6,7,8,9,11,12,13,14,16,18,19,20,22,23,24,25,26,28,30,31,32,34,35,37,39,41,42,47,50},
	{2,3,4,5,6,7,8,9,10,11,12,13,14,15,16,17,18,19,20,21,22,23,24,25,26,27,28,29,30,31,32,33,34,35,36,37,38,39,40,41,42,43,44,45,46,47,48,49,50},
	{2,4,6,7,8,9,11,12,13,14,16,18,19,20,22,23,24,25,26,28,30,31,32,34,35,37,39,41,42,47,50},
	{2,3,4,5,6,8,10,11,13,14,17,18,21,22,23,25,26,27,28,29,31,33,34,36,37,38,43,45,46,47,48,49,50},
	{2,3,7,9,12,13,15,16,19,20,23,24,25,27,29,30,32,33,34,35,36,37,38,39,40,42,44,45,49}];
